c File: data_files/evolved_graphs/g0472.col
c
c Auto generated graph
c
p edge 100 2071
e 1 4
e 1 5
e 1 10
e 1 11
e 1 12
e 1 13
e 1 14
e 1 15
e 1 16
e 1 18
e 1 20
e 1 21
e 1 22
e 1 24
e 1 25
e 1 26
e 1 28
e 1 29
e 1 30
e 1 31
e 1 32
e 1 33
e 1 34
e 1 35
e 1 37
e 1 38
e 1 40
e 1 41
e 1 43
e 1 45
e 1 46
e 1 47
e 1 51
e 1 53
e 1 55
e 1 57
e 1 59
e 1 60
e 1 61
e 1 66
e 1 68
e 1 72
e 1 73
e 1 74
e 1 76
e 1 77
e 1 78
e 1 80
e 1 81
e 1 82
e 1 83
e 1 87
e 1 89
e 1 90
e 1 91
e 1 92
e 1 94
e 1 95
e 1 97
e 1 98
e 1 99
e 1 100
e 2 3
e 2 7
e 2 8
e 2 9
e 2 10
e 2 12
e 2 15
e 2 19
e 2 20
e 2 21
e 2 22
e 2 23
e 2 24
e 2 26
e 2 27
e 2 28
e 2 29
e 2 31
e 2 32
e 2 34
e 2 35
e 2 36
e 2 37
e 2 39
e 2 40
e 2 41
e 2 44
e 2 45
e 2 46
e 2 47
e 2 49
e 2 50
e 2 52
e 2 53
e 2 55
e 2 56
e 2 57
e 2 58
e 2 59
e 2 60
e 2 61
e 2 62
e 2 67
e 2 70
e 2 72
e 2 74
e 2 77
e 2 79
e 2 80
e 2 81
e 2 82
e 2 85
e 2 87
e 2 89
e 2 91
e 2 92
e 2 93
e 2 94
e 2 96
e 2 97
e 2 98
e 2 99
e 2 100
e 3 5
e 3 7
e 3 8
e 3 9
e 3 10
e 3 11
e 3 13
e 3 16
e 3 21
e 3 22
e 3 23
e 3 24
e 3 25
e 3 26
e 3 27
e 3 28
e 3 29
e 3 31
e 3 32
e 3 35
e 3 37
e 3 38
e 3 40
e 3 41
e 3 42
e 3 43
e 3 45
e 3 46
e 3 48
e 3 50
e 3 52
e 3 55
e 3 56
e 3 57
e 3 59
e 3 60
e 3 61
e 3 62
e 3 64
e 3 65
e 3 68
e 3 70
e 3 71
e 3 72
e 3 73
e 3 74
e 3 75
e 3 76
e 3 77
e 3 78
e 3 79
e 3 80
e 3 81
e 3 82
e 3 84
e 3 85
e 3 86
e 3 88
e 3 90
e 3 91
e 3 92
e 3 94
e 3 96
e 3 97
e 3 98
e 3 99
e 3 100
e 4 7
e 4 8
e 4 9
e 4 10
e 4 11
e 4 12
e 4 14
e 4 15
e 4 17
e 4 19
e 4 20
e 4 21
e 4 22
e 4 23
e 4 24
e 4 27
e 4 28
e 4 31
e 4 32
e 4 33
e 4 37
e 4 39
e 4 40
e 4 41
e 4 42
e 4 44
e 4 46
e 4 47
e 4 48
e 4 51
e 4 52
e 4 56
e 4 58
e 4 59
e 4 60
e 4 62
e 4 63
e 4 64
e 4 66
e 4 68
e 4 69
e 4 70
e 4 71
e 4 72
e 4 73
e 4 75
e 4 77
e 4 78
e 4 79
e 4 80
e 4 81
e 4 82
e 4 83
e 4 85
e 4 86
e 4 87
e 4 88
e 4 89
e 4 90
e 4 91
e 4 92
e 4 93
e 4 94
e 4 95
e 4 96
e 4 97
e 4 98
e 4 99
e 5 6
e 5 7
e 5 8
e 5 10
e 5 11
e 5 12
e 5 13
e 5 16
e 5 17
e 5 18
e 5 19
e 5 20
e 5 21
e 5 22
e 5 23
e 5 25
e 5 26
e 5 27
e 5 31
e 5 32
e 5 34
e 5 35
e 5 37
e 5 38
e 5 39
e 5 40
e 5 41
e 5 42
e 5 43
e 5 44
e 5 45
e 5 46
e 5 48
e 5 49
e 5 51
e 5 52
e 5 53
e 5 54
e 5 55
e 5 56
e 5 57
e 5 60
e 5 62
e 5 64
e 5 65
e 5 69
e 5 72
e 5 74
e 5 75
e 5 76
e 5 79
e 5 81
e 5 82
e 5 84
e 5 87
e 5 88
e 5 89
e 5 90
e 5 91
e 5 93
e 5 94
e 5 95
e 5 96
e 5 97
e 5 98
e 5 99
e 5 100
e 6 7
e 6 8
e 6 9
e 6 10
e 6 11
e 6 15
e 6 16
e 6 17
e 6 19
e 6 21
e 6 22
e 6 23
e 6 25
e 6 27
e 6 28
e 6 30
e 6 31
e 6 33
e 6 34
e 6 35
e 6 36
e 6 37
e 6 38
e 6 39
e 6 40
e 6 41
e 6 42
e 6 43
e 6 44
e 6 45
e 6 46
e 6 47
e 6 48
e 6 49
e 6 51
e 6 52
e 6 53
e 6 55
e 6 56
e 6 57
e 6 58
e 6 60
e 6 61
e 6 62
e 6 63
e 6 64
e 6 67
e 6 68
e 6 72
e 6 73
e 6 75
e 6 76
e 6 77
e 6 78
e 6 80
e 6 81
e 6 83
e 6 84
e 6 85
e 6 86
e 6 89
e 6 91
e 6 92
e 6 95
e 6 97
e 6 98
e 6 100
e 7 8
e 7 9
e 7 12
e 7 14
e 7 15
e 7 16
e 7 17
e 7 18
e 7 19
e 7 20
e 7 21
e 7 22
e 7 23
e 7 24
e 7 25
e 7 26
e 7 27
e 7 29
e 7 30
e 7 32
e 7 33
e 7 35
e 7 36
e 7 37
e 7 38
e 7 39
e 7 40
e 7 41
e 7 42
e 7 43
e 7 44
e 7 48
e 7 49
e 7 50
e 7 51
e 7 52
e 7 53
e 7 54
e 7 55
e 7 56
e 7 57
e 7 58
e 7 59
e 7 61
e 7 62
e 7 68
e 7 69
e 7 73
e 7 74
e 7 76
e 7 77
e 7 78
e 7 81
e 7 82
e 7 83
e 7 84
e 7 86
e 7 87
e 7 88
e 7 89
e 7 91
e 7 92
e 7 93
e 7 98
e 7 99
e 7 100
e 8 10
e 8 13
e 8 14
e 8 19
e 8 22
e 8 26
e 8 28
e 8 30
e 8 31
e 8 36
e 8 38
e 8 40
e 8 42
e 8 45
e 8 55
e 8 62
e 8 69
e 8 75
e 8 77
e 8 79
e 8 80
e 8 81
e 8 82
e 8 83
e 8 92
e 8 93
e 8 97
e 8 98
e 8 99
e 8 100
e 9 11
e 9 16
e 9 18
e 9 21
e 9 23
e 9 24
e 9 27
e 9 30
e 9 32
e 9 35
e 9 37
e 9 40
e 9 41
e 9 42
e 9 43
e 9 44
e 9 45
e 9 46
e 9 47
e 9 48
e 9 49
e 9 53
e 9 54
e 9 56
e 9 57
e 9 58
e 9 61
e 9 63
e 9 65
e 9 66
e 9 72
e 9 74
e 9 77
e 9 83
e 9 86
e 9 88
e 9 89
e 9 91
e 9 95
e 9 96
e 9 97
e 9 98
e 10 13
e 10 14
e 10 15
e 10 18
e 10 19
e 10 20
e 10 21
e 10 24
e 10 26
e 10 30
e 10 32
e 10 37
e 10 38
e 10 42
e 10 46
e 10 50
e 10 52
e 10 54
e 10 57
e 10 60
e 10 66
e 10 68
e 10 69
e 10 70
e 10 73
e 10 77
e 10 82
e 10 83
e 10 85
e 10 86
e 10 87
e 10 90
e 10 92
e 10 93
e 10 95
e 11 13
e 11 14
e 11 17
e 11 18
e 11 22
e 11 24
e 11 25
e 11 26
e 11 27
e 11 31
e 11 32
e 11 33
e 11 34
e 11 35
e 11 37
e 11 41
e 11 43
e 11 44
e 11 48
e 11 49
e 11 52
e 11 53
e 11 59
e 11 61
e 11 64
e 11 65
e 11 68
e 11 69
e 11 71
e 11 75
e 11 77
e 11 78
e 11 82
e 11 88
e 11 89
e 11 93
e 11 94
e 11 95
e 11 96
e 11 97
e 11 98
e 11 99
e 12 14
e 12 16
e 12 20
e 12 23
e 12 24
e 12 25
e 12 27
e 12 29
e 12 30
e 12 33
e 12 36
e 12 39
e 12 43
e 12 44
e 12 45
e 12 46
e 12 48
e 12 49
e 12 50
e 12 55
e 12 62
e 12 63
e 12 65
e 12 67
e 12 69
e 12 75
e 12 85
e 12 89
e 12 90
e 12 93
e 12 96
e 12 98
e 12 99
e 13 18
e 13 19
e 13 21
e 13 24
e 13 28
e 13 30
e 13 33
e 13 35
e 13 36
e 13 39
e 13 44
e 13 46
e 13 47
e 13 48
e 13 49
e 13 51
e 13 53
e 13 54
e 13 57
e 13 60
e 13 66
e 13 69
e 13 70
e 13 73
e 13 75
e 13 76
e 13 82
e 13 85
e 13 88
e 13 93
e 13 98
e 13 100
e 14 15
e 14 17
e 14 20
e 14 24
e 14 26
e 14 28
e 14 29
e 14 30
e 14 32
e 14 35
e 14 40
e 14 43
e 14 45
e 14 46
e 14 51
e 14 59
e 14 61
e 14 63
e 14 65
e 14 66
e 14 69
e 14 71
e 14 74
e 14 76
e 14 80
e 14 85
e 14 88
e 14 89
e 14 90
e 14 94
e 14 95
e 14 97
e 15 28
e 15 30
e 15 31
e 15 34
e 15 35
e 15 36
e 15 37
e 15 40
e 15 42
e 15 46
e 15 47
e 15 48
e 15 49
e 15 50
e 15 51
e 15 52
e 15 54
e 15 55
e 15 56
e 15 58
e 15 59
e 15 61
e 15 63
e 15 65
e 15 66
e 15 67
e 15 70
e 15 71
e 15 73
e 15 74
e 15 76
e 15 77
e 15 80
e 15 86
e 15 87
e 15 89
e 15 93
e 15 94
e 15 99
e 16 17
e 16 21
e 16 23
e 16 24
e 16 26
e 16 28
e 16 33
e 16 34
e 16 37
e 16 38
e 16 42
e 16 48
e 16 49
e 16 55
e 16 57
e 16 58
e 16 62
e 16 63
e 16 64
e 16 68
e 16 69
e 16 75
e 16 78
e 16 79
e 16 83
e 16 87
e 16 89
e 16 95
e 16 96
e 16 97
e 16 100
e 17 19
e 17 23
e 17 24
e 17 28
e 17 29
e 17 31
e 17 32
e 17 35
e 17 40
e 17 42
e 17 43
e 17 44
e 17 49
e 17 51
e 17 52
e 17 56
e 17 62
e 17 65
e 17 66
e 17 67
e 17 68
e 17 71
e 17 74
e 17 75
e 17 81
e 17 83
e 17 86
e 17 90
e 17 91
e 17 93
e 17 94
e 17 95
e 17 96
e 17 97
e 17 99
e 17 100
e 18 20
e 18 23
e 18 27
e 18 28
e 18 31
e 18 34
e 18 35
e 18 38
e 18 39
e 18 43
e 18 46
e 18 48
e 18 50
e 18 53
e 18 54
e 18 56
e 18 58
e 18 67
e 18 68
e 18 70
e 18 72
e 18 73
e 18 76
e 18 81
e 18 83
e 18 84
e 18 86
e 18 90
e 18 94
e 18 97
e 19 22
e 19 23
e 19 26
e 19 28
e 19 37
e 19 40
e 19 41
e 19 44
e 19 49
e 19 50
e 19 51
e 19 55
e 19 57
e 19 58
e 19 65
e 19 66
e 19 68
e 19 70
e 19 76
e 19 78
e 19 79
e 19 82
e 19 85
e 19 87
e 19 90
e 19 94
e 19 98
e 19 100
e 20 23
e 20 24
e 20 28
e 20 38
e 20 42
e 20 45
e 20 54
e 20 59
e 20 60
e 20 63
e 20 69
e 20 71
e 20 72
e 20 73
e 20 75
e 20 76
e 20 77
e 20 81
e 20 88
e 20 90
e 20 92
e 20 95
e 20 97
e 20 99
e 21 28
e 21 29
e 21 30
e 21 31
e 21 41
e 21 44
e 21 45
e 21 52
e 21 53
e 21 56
e 21 57
e 21 60
e 21 62
e 21 63
e 21 70
e 21 73
e 21 81
e 21 82
e 21 83
e 21 85
e 21 86
e 21 90
e 21 93
e 21 95
e 21 96
e 21 98
e 21 99
e 22 24
e 22 27
e 22 30
e 22 34
e 22 38
e 22 42
e 22 48
e 22 51
e 22 53
e 22 55
e 22 60
e 22 64
e 22 68
e 22 69
e 22 72
e 22 73
e 22 76
e 22 80
e 22 82
e 22 85
e 22 86
e 22 91
e 22 95
e 22 98
e 22 99
e 22 100
e 23 26
e 23 29
e 23 38
e 23 43
e 23 45
e 23 46
e 23 47
e 23 50
e 23 52
e 23 59
e 23 62
e 23 63
e 23 67
e 23 70
e 23 71
e 23 75
e 23 76
e 23 78
e 23 79
e 23 80
e 23 81
e 23 82
e 23 84
e 23 85
e 23 87
e 23 90
e 23 93
e 23 96
e 23 99
e 23 100
e 24 28
e 24 30
e 24 33
e 24 37
e 24 39
e 24 42
e 24 44
e 24 45
e 24 46
e 24 51
e 24 53
e 24 58
e 24 61
e 24 65
e 24 70
e 24 71
e 24 72
e 24 73
e 24 78
e 24 79
e 24 89
e 24 90
e 24 91
e 24 94
e 24 96
e 24 98
e 24 100
e 25 34
e 25 37
e 25 38
e 25 41
e 25 49
e 25 54
e 25 56
e 25 57
e 25 61
e 25 69
e 25 70
e 25 73
e 25 77
e 25 78
e 25 82
e 25 83
e 25 84
e 25 86
e 25 94
e 25 95
e 25 99
e 26 27
e 26 35
e 26 41
e 26 42
e 26 48
e 26 50
e 26 51
e 26 53
e 26 55
e 26 57
e 26 59
e 26 60
e 26 62
e 26 64
e 26 65
e 26 68
e 26 70
e 26 71
e 26 72
e 26 74
e 26 75
e 26 76
e 26 77
e 26 84
e 26 85
e 26 87
e 26 90
e 26 94
e 26 96
e 26 97
e 27 28
e 27 31
e 27 32
e 27 33
e 27 41
e 27 43
e 27 44
e 27 46
e 27 48
e 27 51
e 27 53
e 27 54
e 27 55
e 27 57
e 27 59
e 27 61
e 27 62
e 27 71
e 27 72
e 27 76
e 27 79
e 27 80
e 27 81
e 27 83
e 27 86
e 27 88
e 27 90
e 27 95
e 27 100
e 28 34
e 28 40
e 28 43
e 28 48
e 28 49
e 28 50
e 28 54
e 28 59
e 28 60
e 28 63
e 28 64
e 28 65
e 28 68
e 28 69
e 28 73
e 28 81
e 28 84
e 28 85
e 28 87
e 28 92
e 28 97
e 28 98
e 28 99
e 28 100
e 29 31
e 29 34
e 29 37
e 29 38
e 29 40
e 29 46
e 29 48
e 29 49
e 29 51
e 29 52
e 29 53
e 29 55
e 29 56
e 29 58
e 29 59
e 29 60
e 29 62
e 29 63
e 29 64
e 29 65
e 29 67
e 29 73
e 29 74
e 29 76
e 29 82
e 29 84
e 29 86
e 29 92
e 29 93
e 29 94
e 29 97
e 29 98
e 30 31
e 30 34
e 30 38
e 30 39
e 30 40
e 30 44
e 30 49
e 30 55
e 30 57
e 30 62
e 30 65
e 30 72
e 30 74
e 30 81
e 30 84
e 30 87
e 30 89
e 30 94
e 30 96
e 30 99
e 31 32
e 31 35
e 31 36
e 31 42
e 31 43
e 31 48
e 31 52
e 31 62
e 31 63
e 31 64
e 31 67
e 31 68
e 31 70
e 31 72
e 31 76
e 31 77
e 31 81
e 31 85
e 31 88
e 31 93
e 31 96
e 32 38
e 32 43
e 32 45
e 32 46
e 32 52
e 32 55
e 32 58
e 32 68
e 32 69
e 32 70
e 32 72
e 32 74
e 32 78
e 32 79
e 32 80
e 32 81
e 32 82
e 32 84
e 32 86
e 32 87
e 32 93
e 32 98
e 33 36
e 33 37
e 33 39
e 33 43
e 33 46
e 33 48
e 33 52
e 33 55
e 33 57
e 33 58
e 33 61
e 33 62
e 33 65
e 33 67
e 33 68
e 33 69
e 33 70
e 33 72
e 33 73
e 33 74
e 33 75
e 33 76
e 33 84
e 33 86
e 33 88
e 33 89
e 33 91
e 33 100
e 34 35
e 34 38
e 34 41
e 34 43
e 34 46
e 34 50
e 34 51
e 34 52
e 34 58
e 34 59
e 34 73
e 34 75
e 34 76
e 34 77
e 34 80
e 34 81
e 34 85
e 34 86
e 34 87
e 34 88
e 34 90
e 34 94
e 34 95
e 34 96
e 35 36
e 35 38
e 35 39
e 35 40
e 35 41
e 35 46
e 35 48
e 35 49
e 35 51
e 35 53
e 35 61
e 35 62
e 35 66
e 35 68
e 35 70
e 35 77
e 35 78
e 35 79
e 35 80
e 35 83
e 35 84
e 35 87
e 35 90
e 35 95
e 35 96
e 35 97
e 35 100
e 36 37
e 36 39
e 36 42
e 36 43
e 36 45
e 36 47
e 36 55
e 36 57
e 36 59
e 36 61
e 36 66
e 36 71
e 36 73
e 36 76
e 36 79
e 36 80
e 36 81
e 36 82
e 36 83
e 36 84
e 36 88
e 36 89
e 36 90
e 36 92
e 36 100
e 37 38
e 37 39
e 37 42
e 37 47
e 37 49
e 37 51
e 37 52
e 37 54
e 37 56
e 37 58
e 37 64
e 37 67
e 37 73
e 37 75
e 37 76
e 37 83
e 37 84
e 37 90
e 37 91
e 37 93
e 37 96
e 37 100
e 38 39
e 38 44
e 38 46
e 38 50
e 38 52
e 38 53
e 38 57
e 38 58
e 38 63
e 38 64
e 38 67
e 38 70
e 38 72
e 38 73
e 38 74
e 38 75
e 38 76
e 38 77
e 38 79
e 38 85
e 38 88
e 38 93
e 38 96
e 38 98
e 39 45
e 39 46
e 39 49
e 39 55
e 39 59
e 39 61
e 39 63
e 39 64
e 39 65
e 39 67
e 39 73
e 39 75
e 39 81
e 39 84
e 39 88
e 39 89
e 39 91
e 39 92
e 39 99
e 39 100
e 40 43
e 40 45
e 40 46
e 40 49
e 40 50
e 40 55
e 40 56
e 40 61
e 40 62
e 40 67
e 40 74
e 40 78
e 40 81
e 40 84
e 40 86
e 40 89
e 40 92
e 40 93
e 40 99
e 41 45
e 41 46
e 41 47
e 41 49
e 41 56
e 41 57
e 41 59
e 41 69
e 41 70
e 41 71
e 41 72
e 41 75
e 41 77
e 41 79
e 41 80
e 41 81
e 41 82
e 41 83
e 41 84
e 41 85
e 41 86
e 41 87
e 41 95
e 41 96
e 41 99
e 41 100
e 42 46
e 42 51
e 42 52
e 42 58
e 42 62
e 42 64
e 42 72
e 42 75
e 42 76
e 42 79
e 42 80
e 42 81
e 42 83
e 42 84
e 42 85
e 42 91
e 42 93
e 42 96
e 42 98
e 42 100
e 43 45
e 43 46
e 43 49
e 43 56
e 43 61
e 43 64
e 43 65
e 43 68
e 43 71
e 43 72
e 43 73
e 43 77
e 43 78
e 43 79
e 43 81
e 43 84
e 43 86
e 44 52
e 44 53
e 44 55
e 44 58
e 44 59
e 44 63
e 44 70
e 44 71
e 44 72
e 44 74
e 44 75
e 44 76
e 44 77
e 44 78
e 44 82
e 44 84
e 44 85
e 44 86
e 44 88
e 44 90
e 44 91
e 44 92
e 44 98
e 45 46
e 45 47
e 45 48
e 45 51
e 45 53
e 45 54
e 45 55
e 45 56
e 45 57
e 45 62
e 45 65
e 45 66
e 45 67
e 45 68
e 45 72
e 45 73
e 45 74
e 45 78
e 45 81
e 45 83
e 45 86
e 45 87
e 45 91
e 45 93
e 45 95
e 45 98
e 45 99
e 46 48
e 46 49
e 46 52
e 46 54
e 46 55
e 46 56
e 46 57
e 46 60
e 46 64
e 46 66
e 46 70
e 46 71
e 46 72
e 46 73
e 46 75
e 46 77
e 46 79
e 46 80
e 46 81
e 46 84
e 46 91
e 46 92
e 46 93
e 46 95
e 46 100
e 47 48
e 47 50
e 47 51
e 47 53
e 47 56
e 47 59
e 47 62
e 47 64
e 47 68
e 47 69
e 47 72
e 47 75
e 47 76
e 47 77
e 47 78
e 47 79
e 47 80
e 47 82
e 47 83
e 47 85
e 47 86
e 47 89
e 47 90
e 47 91
e 47 96
e 47 97
e 47 98
e 47 99
e 47 100
e 48 49
e 48 51
e 48 53
e 48 54
e 48 61
e 48 62
e 48 70
e 48 72
e 48 75
e 48 77
e 48 81
e 48 86
e 48 88
e 48 89
e 48 90
e 48 93
e 48 94
e 48 97
e 48 100
e 49 51
e 49 52
e 49 58
e 49 65
e 49 66
e 49 68
e 49 70
e 49 71
e 49 76
e 49 78
e 49 83
e 49 87
e 49 94
e 49 97
e 49 98
e 49 100
e 50 52
e 50 55
e 50 57
e 50 58
e 50 61
e 50 63
e 50 69
e 50 71
e 50 72
e 50 74
e 50 76
e 50 84
e 50 85
e 50 87
e 50 88
e 50 90
e 50 94
e 51 59
e 51 64
e 51 66
e 51 69
e 51 71
e 51 74
e 51 81
e 51 82
e 51 83
e 51 85
e 51 92
e 51 94
e 51 97
e 51 98
e 51 99
e 51 100
e 52 54
e 52 56
e 52 57
e 52 58
e 52 59
e 52 65
e 52 66
e 52 75
e 52 76
e 52 77
e 52 78
e 52 83
e 52 92
e 52 93
e 52 94
e 52 95
e 52 100
e 53 54
e 53 55
e 53 59
e 53 60
e 53 63
e 53 64
e 53 68
e 53 71
e 53 72
e 53 73
e 53 78
e 53 79
e 53 83
e 53 85
e 53 90
e 53 95
e 53 96
e 53 99
e 54 55
e 54 56
e 54 57
e 54 59
e 54 62
e 54 63
e 54 66
e 54 67
e 54 68
e 54 69
e 54 72
e 54 78
e 54 79
e 54 83
e 54 90
e 54 93
e 54 94
e 54 96
e 54 97
e 55 56
e 55 57
e 55 62
e 55 65
e 55 66
e 55 68
e 55 71
e 55 72
e 55 74
e 55 76
e 55 78
e 55 79
e 55 80
e 55 84
e 55 90
e 55 92
e 55 100
e 56 60
e 56 62
e 56 66
e 56 68
e 56 70
e 56 77
e 56 80
e 56 81
e 56 84
e 56 86
e 56 88
e 56 93
e 56 94
e 56 95
e 56 98
e 56 99
e 57 58
e 57 64
e 57 65
e 57 72
e 57 73
e 57 76
e 57 78
e 57 81
e 57 83
e 57 85
e 57 86
e 57 87
e 57 93
e 57 95
e 57 99
e 57 100
e 58 62
e 58 68
e 58 69
e 58 71
e 58 72
e 58 74
e 58 75
e 58 79
e 58 80
e 58 83
e 58 88
e 58 92
e 58 93
e 59 60
e 59 62
e 59 63
e 59 64
e 59 65
e 59 67
e 59 69
e 59 70
e 59 72
e 59 74
e 59 90
e 59 91
e 59 95
e 59 97
e 59 100
e 60 62
e 60 63
e 60 68
e 60 69
e 60 77
e 60 79
e 60 80
e 60 84
e 60 92
e 60 93
e 60 95
e 60 96
e 60 97
e 60 99
e 61 67
e 61 73
e 61 75
e 61 76
e 61 77
e 61 78
e 61 79
e 61 80
e 61 82
e 61 84
e 61 85
e 61 88
e 61 89
e 61 90
e 61 91
e 61 93
e 61 94
e 61 100
e 62 66
e 62 67
e 62 68
e 62 70
e 62 71
e 62 72
e 62 77
e 62 83
e 62 86
e 62 87
e 62 88
e 62 89
e 62 91
e 62 93
e 62 94
e 62 96
e 62 97
e 63 67
e 63 72
e 63 73
e 63 75
e 63 79
e 63 80
e 63 84
e 63 85
e 63 89
e 63 96
e 63 97
e 63 99
e 64 67
e 64 70
e 64 71
e 64 74
e 64 75
e 64 79
e 64 80
e 64 84
e 64 85
e 64 89
e 64 92
e 64 95
e 64 96
e 64 99
e 65 68
e 65 73
e 65 75
e 65 76
e 65 77
e 65 79
e 65 85
e 65 87
e 65 91
e 65 94
e 65 95
e 65 98
e 65 99
e 66 67
e 66 68
e 66 71
e 66 72
e 66 78
e 66 79
e 66 82
e 66 83
e 66 84
e 66 88
e 66 95
e 66 98
e 66 100
e 67 72
e 67 79
e 67 82
e 67 84
e 67 86
e 67 88
e 67 89
e 67 95
e 68 70
e 68 74
e 68 75
e 68 78
e 68 80
e 68 81
e 68 83
e 68 85
e 68 86
e 68 87
e 68 88
e 68 90
e 68 91
e 68 93
e 68 95
e 68 96
e 68 98
e 69 70
e 69 72
e 69 74
e 69 75
e 69 77
e 69 80
e 69 87
e 69 88
e 69 93
e 69 94
e 69 97
e 69 99
e 69 100
e 70 75
e 70 81
e 70 82
e 70 84
e 70 85
e 70 91
e 70 92
e 70 94
e 70 96
e 71 72
e 71 76
e 71 81
e 71 88
e 71 89
e 71 90
e 71 92
e 71 94
e 71 95
e 71 96
e 71 97
e 71 98
e 71 100
e 72 73
e 72 76
e 72 79
e 72 81
e 72 87
e 72 92
e 72 96
e 72 97
e 73 74
e 73 76
e 73 80
e 73 84
e 73 85
e 73 86
e 73 89
e 73 90
e 73 92
e 73 95
e 73 96
e 73 97
e 74 77
e 74 80
e 74 87
e 74 91
e 74 92
e 74 95
e 74 97
e 74 99
e 75 78
e 75 79
e 75 80
e 75 81
e 75 88
e 75 89
e 75 90
e 75 91
e 75 94
e 75 96
e 75 98
e 75 99
e 75 100
e 76 77
e 76 79
e 76 81
e 76 82
e 76 83
e 76 91
e 76 94
e 76 96
e 76 97
e 76 98
e 76 100
e 77 80
e 77 81
e 77 83
e 77 85
e 77 88
e 77 89
e 77 99
e 78 81
e 78 82
e 78 85
e 78 87
e 78 90
e 78 92
e 78 93
e 78 98
e 78 99
e 79 84
e 79 88
e 79 91
e 79 93
e 79 94
e 79 95
e 79 96
e 79 97
e 80 84
e 80 86
e 80 87
e 80 89
e 80 90
e 80 93
e 80 98
e 80 100
e 81 82
e 81 84
e 81 87
e 81 88
e 81 92
e 81 96
e 81 100
e 82 83
e 82 85
e 82 86
e 82 88
e 82 89
e 82 92
e 82 93
e 82 94
e 82 97
e 83 85
e 83 90
e 83 91
e 83 93
e 83 98
e 83 100
e 84 85
e 84 91
e 85 87
e 85 89
e 85 90
e 85 96
e 85 97
e 85 100
e 86 89
e 86 97
e 86 99
e 87 88
e 87 96
e 87 100
e 88 89
e 88 91
e 88 96
e 88 98
e 88 99
e 89 90
e 89 95
e 89 99
e 90 91
e 90 92
e 90 95
e 90 96
e 90 98
e 90 100
e 91 95
e 91 96
e 91 98
e 92 93
e 92 94
e 92 95
e 92 97
e 92 99
e 93 94
e 93 95
e 93 99
e 93 100
e 94 96
e 94 97
e 95 98
e 95 99
e 96 100
e 98 99
